18 18
2 6
4 4
3 7
10 3
2 10
1 10
6 5
8 8
5 2
6 1
7 1
3 3
10 7
10 4
5 8
1 2
3 10
5 1
15 14 78
14 20 69
13 19 52
10 11 73
10 20 66
16 13 66
14 13 95
18 13 84
15 15 79
15 20 95
15 11 54
16 20 79
13 19 67
11 13 56
18 16 72
10 20 94
18 11 68
15 13 92
